; ./aeval/./multi-phase/s_split_34_000.smt2
(set-logic HORN)

(declare-fun |fail| ( ) Bool)
(declare-fun |inv| ( Int Int ) Bool)

(assert
  (forall ( (A Int) (B Int) ) 
    (=>
      (and
        (and (= B 1) (= A 0))
      )
      (inv A B)
    )
  )
)
(assert
  (forall ( (A Int) (B Int) (C Int) (D Int) ) 
    (=>
      (and
        (inv A B)
        (let ((a!1 (ite (and (not (<= C (- 100))) (not (<= 100 C))) B (* (- 1) B))))
  (and (= D a!1) (= C (+ A B))))
      )
      (inv C D)
    )
  )
)
(assert
  (forall ( (A Int) (B Int) ) 
    (=>
      (and
        (inv B A)
        (or (not (<= B 100)) (not (>= B (- 100))))
      )
      fail
    )
  )
)
(assert
  (forall ( (CHC_COMP_UNUSED Bool) ) 
    (=>
      (and
        fail
        true
      )
      false
    )
  )
)

(check-sat)
(exit)
